154
100000
7127
21397
5832
23086
28190
10538
7504
29567
12098
7127
13313
6544
29145
16601
2781
7587
25670
2150
13008
15285
13488
10864
35708
30300
1480
35168
14990
5287
45731
36049
5574
1593
2533
35188
20950
31122
38011
3600
3943
20295
7281
6321
39853
28096
42572
46013
26198
27036
29045
33757
16384
634
20547
3925
42265
631
5376
45443
28920
3791
10374
27123
3645
3347
7
1821
4864
40872
47869
47452
47288
42382
32045
22827
13540
49540
2550
48363
24780
18956
1344
33671
19909
1386
18740
35803
1521
22725
30662
18915
30839
2447
6073
44779
4674
25929
25404
9984
3214
11867
25977
26745
26521
23709
37743
12687
25602
2467
1928
38646
19242
28171
41504
11784
1837
5600
3086
11808
2853
36283
23628
44426
2109
39988
5180
4305
1579
27785
2002
22845
3762
36890
25904
30164
33400
15238
27402
29000
269
20477
21178
44131
25791
286
16931
16278
246
4283
6709
4250
20249
28845
40353
19881
